50 18438
5486 7652 1586 9773 7280 6790 6337 4682 9354 10488 7936 5111 10539 10928 9954 10242 8675 6245 5696 10225 8354 8813 6017 8393 10938 8353 1058 9264 8851 2477 4355 4234 10139 9364 7454 10848 10519 6753 2004 6752 10139 5112 6134 8605 2498 7050 6013 4374 5883 4647 
4486 6652 586 8773 6280 5790 5337 3682 8354 9488 6936 4111 9539 9928 8954 9242 7675 5245 4696 9225 7354 7813 5017 7393 9938 7353 58 8264 7851 1477 3355 3234 9139 8364 6454 9848 9519 5753 1004 5752 9139 4112 5134 7605 1498 6050 5013 3374 4883 3647 
